p cnf 386 460
-13 -16 14 21 22 0
-13 -16 14 21 -22 0
-13 -16 14 -21 23 0
-13 -16 14 -21 -23 0
-13 -8 -2 24 25 0
-13 -8 -2 24 -25 0
-13 -8 -2 -24 26 0
-13 -8 -2 -24 -26 0
-14 13 18 27 28 0
-14 13 18 27 -28 0
-14 13 18 -27 29 0
-14 13 18 -27 -29 0
18 1 11 30 31 0
18 1 11 30 -31 0
18 1 11 -30 32 0
18 1 11 -30 -32 0
3 15 -19 33 34 0
3 15 -19 33 -34 0
3 15 -19 -33 35 0
3 15 -19 -33 -35 0
-19 17 8 36 37 0
-19 17 8 36 -37 0
-19 17 8 -36 38 0
-19 17 8 -36 -38 0
11 9 -2 39 40 0
11 9 -2 39 -40 0
11 9 -2 -39 41 0
11 9 -2 -39 -41 0
-1 -20 -13 42 43 0
-1 -20 -13 42 -43 0
-1 -20 -13 -42 44 0
-1 -20 -13 -42 -44 0
-3 -13 -14 45 46 0
-3 -13 -14 45 -46 0
-3 -13 -14 -45 47 0
-3 -13 -14 -45 -47 0
-14 1 -8 48 49 0
-14 1 -8 48 -49 0
-14 1 -8 -48 50 0
-14 1 -8 -48 -50 0
-3 -1 8 51 52 0
-3 -1 8 51 -52 0
-3 -1 8 -51 53 0
-3 -1 8 -51 -53 0
-11 -9 19 54 55 0
-11 -9 19 54 -55 0
-11 -9 19 -54 56 0
-11 -9 19 -54 -56 0
12 -16 -5 57 58 0
12 -16 -5 57 -58 0
12 -16 -5 -57 59 0
12 -16 -5 -57 -59 0
17 16 12 60 61 0
17 16 12 60 -61 0
17 16 12 -60 62 0
17 16 12 -60 -62 0
-4 -3 -10 63 64 0
-4 -3 -10 63 -64 0
-4 -3 -10 -63 65 0
-4 -3 -10 -63 -65 0
-3 17 -13 66 67 0
-3 17 -13 66 -67 0
-3 17 -13 -66 68 0
-3 17 -13 -66 -68 0
20 -17 18 69 70 0
20 -17 18 69 -70 0
20 -17 18 -69 71 0
20 -17 18 -69 -71 0
19 11 8 72 73 0
19 11 8 72 -73 0
19 11 8 -72 74 0
19 11 8 -72 -74 0
19 18 -8 75 76 0
19 18 -8 75 -76 0
19 18 -8 -75 77 0
19 18 -8 -75 -77 0
10 17 3 78 79 0
10 17 3 78 -79 0
10 17 3 -78 80 0
10 17 3 -78 -80 0
20 -2 -15 81 82 0
20 -2 -15 81 -82 0
20 -2 -15 -81 83 0
20 -2 -15 -81 -83 0
2 13 -12 84 85 0
2 13 -12 84 -85 0
2 13 -12 -84 86 0
2 13 -12 -84 -86 0
-9 18 2 87 88 0
-9 18 2 87 -88 0
-9 18 2 -87 89 0
-9 18 2 -87 -89 0
-9 20 -5 90 91 0
-9 20 -5 90 -91 0
-9 20 -5 -90 92 0
-9 20 -5 -90 -92 0
-8 17 -9 93 94 0
-8 17 -9 93 -94 0
-8 17 -9 -93 95 0
-8 17 -9 -93 -95 0
15 20 -19 96 97 0
15 20 -19 96 -97 0
15 20 -19 -96 98 0
15 20 -19 -96 -98 0
-4 -8 3 99 100 0
-4 -8 3 99 -100 0
-4 -8 3 -99 101 0
-4 -8 3 -99 -101 0
9 -6 8 102 103 0
9 -6 8 102 -103 0
9 -6 8 -102 104 0
9 -6 8 -102 -104 0
18 5 -8 105 106 0
18 5 -8 105 -106 0
18 5 -8 -105 107 0
18 5 -8 -105 -107 0
14 -10 -12 108 109 0
14 -10 -12 108 -109 0
14 -10 -12 -108 110 0
14 -10 -12 -108 -110 0
-19 15 -12 111 112 0
-19 15 -12 111 -112 0
-19 15 -12 -111 113 0
-19 15 -12 -111 -113 0
8 5 -10 114 115 0
8 5 -10 114 -115 0
8 5 -10 -114 116 0
8 5 -10 -114 -116 0
12 7 -8 117 118 0
12 7 -8 117 -118 0
12 7 -8 -117 119 0
12 7 -8 -117 -119 0
19 7 -3 120 121 0
19 7 -3 120 -121 0
19 7 -3 -120 122 0
19 7 -3 -120 -122 0
-15 -18 -9 123 124 0
-15 -18 -9 123 -124 0
-15 -18 -9 -123 125 0
-15 -18 -9 -123 -125 0
15 -12 17 126 127 0
15 -12 17 126 -127 0
15 -12 17 -126 128 0
15 -12 17 -126 -128 0
-12 9 -8 129 130 0
-12 9 -8 129 -130 0
-12 9 -8 -129 131 0
-12 9 -8 -129 -131 0
20 -16 -1 132 133 0
20 -16 -1 132 -133 0
20 -16 -1 -132 134 0
20 -16 -1 -132 -134 0
-9 14 -20 135 136 0
-9 14 -20 135 -136 0
-9 14 -20 -135 137 0
-9 14 -20 -135 -137 0
-14 -19 11 138 139 0
-14 -19 11 138 -139 0
-14 -19 11 -138 140 0
-14 -19 11 -138 -140 0
-3 -9 -17 141 142 0
-3 -9 -17 141 -142 0
-3 -9 -17 -141 143 0
-3 -9 -17 -141 -143 0
-4 9 -5 144 145 0
-4 9 -5 144 -145 0
-4 9 -5 -144 146 0
-4 9 -5 -144 -146 0
9 -1 10 147 148 0
9 -1 10 147 -148 0
9 -1 10 -147 149 0
9 -1 10 -147 -149 0
11 13 9 150 151 0
11 13 9 150 -151 0
11 13 9 -150 152 0
11 13 9 -150 -152 0
-1 -13 -12 153 154 0
-1 -13 -12 153 -154 0
-1 -13 -12 -153 155 0
-1 -13 -12 -153 -155 0
8 -15 -13 156 157 0
8 -15 -13 156 -157 0
8 -15 -13 -156 158 0
8 -15 -13 -156 -158 0
-13 15 -7 159 160 0
-13 15 -7 159 -160 0
-13 15 -7 -159 161 0
-13 15 -7 -159 -161 0
-16 -17 -5 162 163 0
-16 -17 -5 162 -163 0
-16 -17 -5 -162 164 0
-16 -17 -5 -162 -164 0
-9 1 -15 165 166 0
-9 1 -15 165 -166 0
-9 1 -15 -165 167 0
-9 1 -15 -165 -167 0
-13 -15 7 168 169 0
-13 -15 7 168 -169 0
-13 -15 7 -168 170 0
-13 -15 7 -168 -170 0
19 -7 14 171 172 0
19 -7 14 171 -172 0
19 -7 14 -171 173 0
19 -7 14 -171 -173 0
-16 -12 10 174 175 0
-16 -12 10 174 -175 0
-16 -12 10 -174 176 0
-16 -12 10 -174 -176 0
15 -3 -11 177 178 0
15 -3 -11 177 -178 0
15 -3 -11 -177 179 0
15 -3 -11 -177 -179 0
-8 6 11 180 181 0
-8 6 11 180 -181 0
-8 6 11 -180 182 0
-8 6 11 -180 -182 0
-6 8 -14 183 184 0
-6 8 -14 183 -184 0
-6 8 -14 -183 185 0
-6 8 -14 -183 -185 0
5 -3 15 186 187 0
5 -3 15 186 -187 0
5 -3 15 -186 188 0
5 -3 15 -186 -188 0
-13 -8 19 189 190 0
-13 -8 19 189 -190 0
-13 -8 19 -189 191 0
-13 -8 19 -189 -191 0
7 -13 -18 192 193 0
7 -13 -18 192 -193 0
7 -13 -18 -192 194 0
7 -13 -18 -192 -194 0
8 -4 18 195 196 0
8 -4 18 195 -196 0
8 -4 18 -195 197 0
8 -4 18 -195 -197 0
13 -5 1 198 199 0
13 -5 1 198 -199 0
13 -5 1 -198 200 0
13 -5 1 -198 -200 0
-4 12 8 201 202 0
-4 12 8 201 -202 0
-4 12 8 -201 203 0
-4 12 8 -201 -203 0
4 20 -12 204 205 0
4 20 -12 204 -205 0
4 20 -12 -204 206 0
4 20 -12 -204 -206 0
-15 10 -16 207 208 0
-15 10 -16 207 -208 0
-15 10 -16 -207 209 0
-15 10 -16 -207 -209 0
-2 -11 -1 210 211 0
-2 -11 -1 210 -211 0
-2 -11 -1 -210 212 0
-2 -11 -1 -210 -212 0
3 8 -17 213 214 0
3 8 -17 213 -214 0
3 8 -17 -213 215 0
3 8 -17 -213 -215 0
-10 12 6 216 217 0
-10 12 6 216 -217 0
-10 12 6 -216 218 0
-10 12 6 -216 -218 0
17 -11 6 219 220 0
17 -11 6 219 -220 0
17 -11 6 -219 221 0
17 -11 6 -219 -221 0
7 19 -3 222 223 0
7 19 -3 222 -223 0
7 19 -3 -222 224 0
7 19 -3 -222 -224 0
3 17 -12 225 226 0
3 17 -12 225 -226 0
3 17 -12 -225 227 0
3 17 -12 -225 -227 0
-6 -9 -7 228 229 0
-6 -9 -7 228 -229 0
-6 -9 -7 -228 230 0
-6 -9 -7 -228 -230 0
-5 -15 -6 231 232 0
-5 -15 -6 231 -232 0
-5 -15 -6 -231 233 0
-5 -15 -6 -231 -233 0
16 20 -9 234 235 0
16 20 -9 234 -235 0
16 20 -9 -234 236 0
16 20 -9 -234 -236 0
4 9 -15 237 238 0
4 9 -15 237 -238 0
4 9 -15 -237 239 0
4 9 -15 -237 -239 0
-6 1 20 240 241 0
-6 1 20 240 -241 0
-6 1 20 -240 242 0
-6 1 20 -240 -242 0
16 -15 -14 243 244 0
16 -15 -14 243 -244 0
16 -15 -14 -243 245 0
16 -15 -14 -243 -245 0
1 19 -6 246 247 0
1 19 -6 246 -247 0
1 19 -6 -246 248 0
1 19 -6 -246 -248 0
-4 -6 16 249 250 0
-4 -6 16 249 -250 0
-4 -6 16 -249 251 0
-4 -6 16 -249 -251 0
6 14 -10 252 253 0
6 14 -10 252 -253 0
6 14 -10 -252 254 0
6 14 -10 -252 -254 0
-18 9 15 255 256 0
-18 9 15 255 -256 0
-18 9 15 -255 257 0
-18 9 15 -255 -257 0
2 -19 15 258 259 0
2 -19 15 258 -259 0
2 -19 15 -258 260 0
2 -19 15 -258 -260 0
5 -12 2 261 262 0
5 -12 2 261 -262 0
5 -12 2 -261 263 0
5 -12 2 -261 -263 0
5 -7 -17 264 265 0
5 -7 -17 264 -265 0
5 -7 -17 -264 266 0
5 -7 -17 -264 -266 0
-17 14 11 267 268 0
-17 14 11 267 -268 0
-17 14 11 -267 269 0
-17 14 11 -267 -269 0
8 -9 -7 270 271 0
8 -9 -7 270 -271 0
8 -9 -7 -270 272 0
8 -9 -7 -270 -272 0
9 17 -11 273 274 0
9 17 -11 273 -274 0
9 17 -11 -273 275 0
9 17 -11 -273 -275 0
-10 4 -19 276 277 0
-10 4 -19 276 -277 0
-10 4 -19 -276 278 0
-10 4 -19 -276 -278 0
-20 -3 -6 279 280 0
-20 -3 -6 279 -280 0
-20 -3 -6 -279 281 0
-20 -3 -6 -279 -281 0
-7 -6 1 282 283 0
-7 -6 1 282 -283 0
-7 -6 1 -282 284 0
-7 -6 1 -282 -284 0
19 3 18 285 286 0
19 3 18 285 -286 0
19 3 18 -285 287 0
19 3 18 -285 -287 0
-5 -15 -7 288 289 0
-5 -15 -7 288 -289 0
-5 -15 -7 -288 290 0
-5 -15 -7 -288 -290 0
8 -5 19 291 292 0
8 -5 19 291 -292 0
8 -5 19 -291 293 0
8 -5 19 -291 -293 0
294 295 297 301 309 0
294 295 297 301 -309 0
294 295 297 -301 310 0
294 295 297 -301 -310 0
294 295 -297 302 311 0
294 295 -297 302 -311 0
294 295 -297 -302 312 0
294 295 -297 -302 -312 0
294 -295 298 303 313 0
294 -295 298 303 -313 0
294 -295 298 -303 314 0
294 -295 298 -303 -314 0
294 -295 -298 304 315 0
294 -295 -298 304 -315 0
294 -295 -298 -304 316 0
294 -295 -298 -304 -316 0
-294 296 299 305 317 0
-294 296 299 305 -317 0
-294 296 299 -305 318 0
-294 296 299 -305 -318 0
-294 296 -299 306 319 0
-294 296 -299 306 -319 0
-294 296 -299 -306 320 0
-294 296 -299 -306 -320 0
-294 -296 300 307 321 0
-294 -296 300 307 -321 0
-294 -296 300 -307 322 0
-294 -296 300 -307 -322 0
-294 -296 -300 308 323 0
-294 -296 -300 308 -323 0
-294 -296 -300 -308 324 0
-294 -296 -300 -308 -324 0
325 326 328 332 340 0
325 326 328 332 -340 0
325 326 328 -332 341 0
325 326 328 -332 -341 0
325 326 -328 333 342 0
325 326 -328 333 -342 0
325 326 -328 -333 343 0
325 326 -328 -333 -343 0
325 -326 329 334 344 0
325 -326 329 334 -344 0
325 -326 329 -334 345 0
325 -326 329 -334 -345 0
325 -326 -329 335 346 0
325 -326 -329 335 -346 0
325 -326 -329 -335 347 0
325 -326 -329 -335 -347 0
-325 327 330 336 348 0
-325 327 330 336 -348 0
-325 327 330 -336 349 0
-325 327 330 -336 -349 0
-325 327 -330 337 350 0
-325 327 -330 337 -350 0
-325 327 -330 -337 351 0
-325 327 -330 -337 -351 0
-325 -327 331 338 352 0
-325 -327 331 338 -352 0
-325 -327 331 -338 353 0
-325 -327 331 -338 -353 0
-325 -327 -331 339 354 0
-325 -327 -331 339 -354 0
-325 -327 -331 -339 355 0
-325 -327 -331 -339 -355 0
356 357 359 363 371 0
356 357 359 363 -371 0
356 357 359 -363 372 0
356 357 359 -363 -372 0
356 357 -359 364 373 0
356 357 -359 364 -373 0
356 357 -359 -364 374 0
356 357 -359 -364 -374 0
356 -357 360 365 375 0
356 -357 360 365 -375 0
356 -357 360 -365 376 0
356 -357 360 -365 -376 0
356 -357 -360 366 377 0
356 -357 -360 366 -377 0
356 -357 -360 -366 378 0
356 -357 -360 -366 -378 0
-356 358 361 367 379 0
-356 358 361 367 -379 0
-356 358 361 -367 380 0
-356 358 361 -367 -380 0
-356 358 -361 368 381 0
-356 358 -361 368 -381 0
-356 358 -361 -368 382 0
-356 358 -361 -368 -382 0
-356 -358 362 369 383 0
-356 -358 362 369 -383 0
-356 -358 362 -369 384 0
-356 -358 362 -369 -384 0
-356 -358 -362 370 385 0
-356 -358 -362 370 -385 0
-356 -358 -362 -370 386 0
-356 -358 -362 -370 -386 0

